
Gurobi 8.1.0 (win64, Python) logging started 03/02/19 19:35:26

Academic license - for non-commercial use only
Optimize a model with 7 rows, 36 columns and 42 nonzeros
Variable types: 0 continuous, 36 integer (36 binary)
Coefficient statistics:
  Matrix range     [1e+00, 1e+00]
  Objective range  [2e-01, 5e-01]
  Bounds range     [1e+00, 1e+00]
  RHS range        [1e+00, 1e+00]
Found heuristic solution: objective -0.5000000
Presolve removed 7 rows and 36 columns
Presolve time: 0.00s
Presolve: All rows and columns removed

Explored 0 nodes (0 simplex iterations) in 0.01 seconds
Thread count was 1 (of 12 available processors)

Solution count 2: -2.3 -0.5 

Optimal solution found (tolerance 1.00e-04)
Best objective -2.300000000000e+00, best bound -2.300000000000e+00, gap 0.0000%
Optimize a model with 7 rows, 36 columns and 42 nonzeros
Variable types: 0 continuous, 36 integer (36 binary)
Coefficient statistics:
  Matrix range     [1e+00, 1e+00]
  Objective range  [2e-01, 5e-01]
  Bounds range     [1e+00, 1e+00]
  RHS range        [1e+00, 1e+00]
Found heuristic solution: objective -0.5000000
Presolve removed 7 rows and 36 columns
Presolve time: 0.00s
Presolve: All rows and columns removed

Explored 0 nodes (0 simplex iterations) in 0.00 seconds
Thread count was 1 (of 12 available processors)

Solution count 2: -2.3 -0.5 

Optimal solution found (tolerance 1.00e-04)
Best objective -2.300000000000e+00, best bound -2.300000000000e+00, gap 0.0000%
Optimize a model with 7 rows, 36 columns and 42 nonzeros
Variable types: 0 continuous, 36 integer (36 binary)
Coefficient statistics:
  Matrix range     [1e+00, 1e+00]
  Objective range  [2e-01, 5e-01]
  Bounds range     [1e+00, 1e+00]
  RHS range        [1e+00, 1e+00]
Found heuristic solution: objective -0.5000000
Presolve removed 7 rows and 36 columns
Presolve time: 0.00s
Presolve: All rows and columns removed

Explored 0 nodes (0 simplex iterations) in 0.00 seconds
Thread count was 1 (of 12 available processors)

Solution count 2: -2.3 -0.5 

Optimal solution found (tolerance 1.00e-04)
Best objective -2.300000000000e+00, best bound -2.300000000000e+00, gap 0.0000%
Optimize a model with 7 rows, 36 columns and 42 nonzeros
Variable types: 0 continuous, 36 integer (36 binary)
Coefficient statistics:
  Matrix range     [1e+00, 1e+00]
  Objective range  [2e-01, 5e-01]
  Bounds range     [1e+00, 1e+00]
  RHS range        [1e+00, 1e+00]
Found heuristic solution: objective -0.5000000
Presolve removed 7 rows and 36 columns
Presolve time: 0.00s
Presolve: All rows and columns removed

Explored 0 nodes (0 simplex iterations) in 0.00 seconds
Thread count was 1 (of 12 available processors)

Solution count 2: -2.3 -0.5 

Optimal solution found (tolerance 1.00e-04)
Best objective -2.300000000000e+00, best bound -2.300000000000e+00, gap 0.0000%
Optimize a model with 7 rows, 36 columns and 42 nonzeros
Variable types: 0 continuous, 36 integer (36 binary)
Coefficient statistics:
  Matrix range     [1e+00, 1e+00]
  Objective range  [2e-01, 5e-01]
  Bounds range     [1e+00, 1e+00]
  RHS range        [1e+00, 1e+00]
Found heuristic solution: objective -0.5000000
Presolve removed 7 rows and 36 columns
Presolve time: 0.00s
Presolve: All rows and columns removed

Explored 0 nodes (0 simplex iterations) in 0.00 seconds
Thread count was 1 (of 12 available processors)

Solution count 2: -2.3 -0.5 

Optimal solution found (tolerance 1.00e-04)
Best objective -2.300000000000e+00, best bound -2.300000000000e+00, gap 0.0000%
Optimize a model with 7 rows, 36 columns and 42 nonzeros
Variable types: 0 continuous, 36 integer (36 binary)
Coefficient statistics:
  Matrix range     [1e+00, 1e+00]
  Objective range  [2e-01, 5e-01]
  Bounds range     [1e+00, 1e+00]
  RHS range        [1e+00, 1e+00]
Found heuristic solution: objective -0.5000000
Presolve removed 7 rows and 36 columns
Presolve time: 0.00s
Presolve: All rows and columns removed

Explored 0 nodes (0 simplex iterations) in 0.00 seconds
Thread count was 1 (of 12 available processors)

Solution count 2: -2.3 -0.5 

Optimal solution found (tolerance 1.00e-04)
Best objective -2.300000000000e+00, best bound -2.300000000000e+00, gap 0.0000%
Optimize a model with 7 rows, 36 columns and 42 nonzeros
Variable types: 0 continuous, 36 integer (36 binary)
Coefficient statistics:
  Matrix range     [1e+00, 1e+00]
  Objective range  [2e-01, 5e-01]
  Bounds range     [1e+00, 1e+00]
  RHS range        [1e+00, 1e+00]
Found heuristic solution: objective -0.5000000
Presolve removed 7 rows and 36 columns
Presolve time: 0.00s
Presolve: All rows and columns removed

Explored 0 nodes (0 simplex iterations) in 0.00 seconds
Thread count was 1 (of 12 available processors)

Solution count 2: -2.3 -0.5 

Optimal solution found (tolerance 1.00e-04)
Best objective -2.300000000000e+00, best bound -2.300000000000e+00, gap 0.0000%
Optimize a model with 7 rows, 36 columns and 42 nonzeros
Variable types: 0 continuous, 36 integer (36 binary)
Coefficient statistics:
  Matrix range     [1e+00, 1e+00]
  Objective range  [2e-01, 5e-01]
  Bounds range     [1e+00, 1e+00]
  RHS range        [1e+00, 1e+00]
Found heuristic solution: objective -0.5000000
Presolve removed 7 rows and 36 columns
Presolve time: 0.00s
Presolve: All rows and columns removed

Explored 0 nodes (0 simplex iterations) in 0.00 seconds
Thread count was 1 (of 12 available processors)

Solution count 2: -2.3 -0.5 

Optimal solution found (tolerance 1.00e-04)
Best objective -2.300000000000e+00, best bound -2.300000000000e+00, gap 0.0000%
Optimize a model with 7 rows, 36 columns and 42 nonzeros
Variable types: 0 continuous, 36 integer (36 binary)
Coefficient statistics:
  Matrix range     [1e+00, 1e+00]
  Objective range  [2e-01, 5e-01]
  Bounds range     [1e+00, 1e+00]
  RHS range        [1e+00, 1e+00]
Found heuristic solution: objective -0.5000000
Presolve removed 7 rows and 36 columns
Presolve time: 0.00s
Presolve: All rows and columns removed

Explored 0 nodes (0 simplex iterations) in 0.01 seconds
Thread count was 1 (of 12 available processors)

Solution count 2: -2.3 -0.5 

Optimal solution found (tolerance 1.00e-04)
Best objective -2.300000000000e+00, best bound -2.300000000000e+00, gap 0.0000%
Optimize a model with 7 rows, 36 columns and 42 nonzeros
Variable types: 0 continuous, 36 integer (36 binary)
Coefficient statistics:
  Matrix range     [1e+00, 1e+00]
  Objective range  [2e-01, 5e-01]
  Bounds range     [1e+00, 1e+00]
  RHS range        [1e+00, 1e+00]
Found heuristic solution: objective -0.5000000
Presolve removed 7 rows and 36 columns
Presolve time: 0.00s
Presolve: All rows and columns removed

Explored 0 nodes (0 simplex iterations) in 0.00 seconds
Thread count was 1 (of 12 available processors)

Solution count 2: -2.3 -0.5 

Optimal solution found (tolerance 1.00e-04)
Best objective -2.300000000000e+00, best bound -2.300000000000e+00, gap 0.0000%
Optimize a model with 7 rows, 36 columns and 42 nonzeros
Variable types: 0 continuous, 36 integer (36 binary)
Coefficient statistics:
  Matrix range     [1e+00, 1e+00]
  Objective range  [2e-01, 5e-01]
  Bounds range     [1e+00, 1e+00]
  RHS range        [1e+00, 1e+00]
Found heuristic solution: objective -0.5000000
Presolve removed 7 rows and 36 columns
Presolve time: 0.00s
Presolve: All rows and columns removed

Explored 0 nodes (0 simplex iterations) in 0.01 seconds
Thread count was 1 (of 12 available processors)

Solution count 2: -2.3 -0.5 

Optimal solution found (tolerance 1.00e-04)
Best objective -2.300000000000e+00, best bound -2.300000000000e+00, gap 0.0000%
Optimize a model with 7 rows, 36 columns and 42 nonzeros
Variable types: 0 continuous, 36 integer (36 binary)
Coefficient statistics:
  Matrix range     [1e+00, 1e+00]
  Objective range  [2e-01, 5e-01]
  Bounds range     [1e+00, 1e+00]
  RHS range        [1e+00, 1e+00]
Found heuristic solution: objective -0.5000000
Presolve removed 7 rows and 36 columns
Presolve time: 0.00s
Presolve: All rows and columns removed

Explored 0 nodes (0 simplex iterations) in 0.01 seconds
Thread count was 1 (of 12 available processors)

Solution count 2: -2.3 -0.5 

Optimal solution found (tolerance 1.00e-04)
Best objective -2.300000000000e+00, best bound -2.300000000000e+00, gap 0.0000%
Optimize a model with 7 rows, 36 columns and 42 nonzeros
Variable types: 0 continuous, 36 integer (36 binary)
Coefficient statistics:
  Matrix range     [1e+00, 1e+00]
  Objective range  [2e-01, 5e-01]
  Bounds range     [1e+00, 1e+00]
  RHS range        [1e+00, 1e+00]
Found heuristic solution: objective -0.5000000
Presolve removed 7 rows and 36 columns
Presolve time: 0.00s
Presolve: All rows and columns removed

Explored 0 nodes (0 simplex iterations) in 0.00 seconds
Thread count was 1 (of 12 available processors)

Solution count 2: -2.3 -0.5 

Optimal solution found (tolerance 1.00e-04)
Best objective -2.300000000000e+00, best bound -2.300000000000e+00, gap 0.0000%
Optimize a model with 7 rows, 36 columns and 42 nonzeros
Variable types: 0 continuous, 36 integer (36 binary)
Coefficient statistics:
  Matrix range     [1e+00, 1e+00]
  Objective range  [2e-01, 5e-01]
  Bounds range     [1e+00, 1e+00]
  RHS range        [1e+00, 1e+00]
Found heuristic solution: objective -0.5000000
Presolve removed 7 rows and 36 columns
Presolve time: 0.00s
Presolve: All rows and columns removed

Explored 0 nodes (0 simplex iterations) in 0.01 seconds
Thread count was 1 (of 12 available processors)

Solution count 2: -2.3 -0.5 

Optimal solution found (tolerance 1.00e-04)
Best objective -2.300000000000e+00, best bound -2.300000000000e+00, gap 0.0000%
Optimize a model with 7 rows, 36 columns and 42 nonzeros
Variable types: 0 continuous, 36 integer (36 binary)
Coefficient statistics:
  Matrix range     [1e+00, 1e+00]
  Objective range  [2e-01, 5e-01]
  Bounds range     [1e+00, 1e+00]
  RHS range        [1e+00, 1e+00]
Found heuristic solution: objective -0.5000000
Presolve removed 7 rows and 36 columns
Presolve time: 0.00s
Presolve: All rows and columns removed

Explored 0 nodes (0 simplex iterations) in 0.01 seconds
Thread count was 1 (of 12 available processors)

Solution count 2: -2.3 -0.5 

Optimal solution found (tolerance 1.00e-04)
Best objective -2.300000000000e+00, best bound -2.300000000000e+00, gap 0.0000%
Optimize a model with 7 rows, 36 columns and 42 nonzeros
Variable types: 0 continuous, 36 integer (36 binary)
Coefficient statistics:
  Matrix range     [1e+00, 1e+00]
  Objective range  [2e-01, 5e-01]
  Bounds range     [1e+00, 1e+00]
  RHS range        [1e+00, 1e+00]
Found heuristic solution: objective -0.5000000
Presolve removed 7 rows and 36 columns
Presolve time: 0.00s
Presolve: All rows and columns removed

Explored 0 nodes (0 simplex iterations) in 0.01 seconds
Thread count was 1 (of 12 available processors)

Solution count 2: -2.3 -0.5 

Optimal solution found (tolerance 1.00e-04)
Best objective -2.300000000000e+00, best bound -2.300000000000e+00, gap 0.0000%
Optimize a model with 7 rows, 36 columns and 42 nonzeros
Variable types: 0 continuous, 36 integer (36 binary)
Coefficient statistics:
  Matrix range     [1e+00, 1e+00]
  Objective range  [2e-01, 5e-01]
  Bounds range     [1e+00, 1e+00]
  RHS range        [1e+00, 1e+00]
Found heuristic solution: objective -0.5000000
Presolve removed 7 rows and 36 columns
Presolve time: 0.00s
Presolve: All rows and columns removed

Explored 0 nodes (0 simplex iterations) in 0.01 seconds
Thread count was 1 (of 12 available processors)

Solution count 2: -2.3 -0.5 

Optimal solution found (tolerance 1.00e-04)
Best objective -2.300000000000e+00, best bound -2.300000000000e+00, gap 0.0000%
Optimize a model with 7 rows, 36 columns and 42 nonzeros
Variable types: 0 continuous, 36 integer (36 binary)
Coefficient statistics:
  Matrix range     [1e+00, 1e+00]
  Objective range  [2e-01, 5e-01]
  Bounds range     [1e+00, 1e+00]
  RHS range        [1e+00, 1e+00]
Found heuristic solution: objective -0.5000000
Presolve removed 7 rows and 36 columns
Presolve time: 0.00s
Presolve: All rows and columns removed

Explored 0 nodes (0 simplex iterations) in 0.01 seconds
Thread count was 1 (of 12 available processors)

Solution count 2: -2.3 -0.5 

Optimal solution found (tolerance 1.00e-04)
Best objective -2.300000000000e+00, best bound -2.300000000000e+00, gap 0.0000%
Optimize a model with 7 rows, 36 columns and 42 nonzeros
Variable types: 0 continuous, 36 integer (36 binary)
Coefficient statistics:
  Matrix range     [1e+00, 1e+00]
  Objective range  [2e-01, 5e-01]
  Bounds range     [1e+00, 1e+00]
  RHS range        [1e+00, 1e+00]
Found heuristic solution: objective -0.5000000
Presolve removed 7 rows and 36 columns
Presolve time: 0.00s
Presolve: All rows and columns removed

Explored 0 nodes (0 simplex iterations) in 0.00 seconds
Thread count was 1 (of 12 available processors)

Solution count 2: -2.3 -0.5 

Optimal solution found (tolerance 1.00e-04)
Best objective -2.300000000000e+00, best bound -2.300000000000e+00, gap 0.0000%

Gurobi 8.1.0 (win64, Python) logging started 03/03/19 17:17:10

Academic license - for non-commercial use only
Optimize a model with 41 rows, 640 columns and 680 nonzeros
Variable types: 0 continuous, 640 integer (640 binary)
Coefficient statistics:
  Matrix range     [1e+00, 1e+00]
  Objective range  [1e-01, 9e-01]
  Bounds range     [1e+00, 1e+00]
  RHS range        [1e+00, 1e+00]
Found heuristic solution: objective -0.6000000
Presolve removed 41 rows and 640 columns
Presolve time: 0.01s
Presolve: All rows and columns removed

Explored 0 nodes (0 simplex iterations) in 0.03 seconds
Thread count was 1 (of 12 available processors)

Solution count 2: -21.3 -0.6 

Optimal solution found (tolerance 1.00e-04)
Best objective -2.130000000000e+01, best bound -2.130000000000e+01, gap 0.0000%
